benchmark/results/graph__10-1000-0.10-04_12/graph__10-1000-0.10-04_12_QuintonOs_Benders_sub.lp
\ This file has been generated by DOcplex
\ ENCODING=ISO-8859-1
\Problem name: Quinton Bounded Benders_dual_sub

Minimize
 obj: 0.001207729469 pi_nr_a0 + 0.001488095238 pi_nr_a1
      + 0.003389830508 pi_nr_a2 + 0.001506024096 pi_nr_a3
      + 0.000815660685 pi_nr_a4 + 0.001779359431 pi_nr_a5
      + 0.002298850575 pi_nr_a6 + 0.001443001443 pi_nr_a7
      + 0.001540832049 pi_nr_a8 + 0.001298701299 pi_nr_a9 + pi_p_a4_a0
      + pi_p_a2_a6 + pi_p_a8_a7 + pi_p_a5_a9 + pi_p_a9_a3 + pi_p_a4_a7
      + pi_p_a1_a7 + 2502 pi_d_a0_a1_proc_0 + 1258 pi_d_a0_a1_proc_1
      + 2475 pi_d_a1_a0_proc_0 + 1231 pi_d_a1_a0_proc_1 + 1231 pi_d_a0_a2_proc_2
      + 2475 pi_d_a0_a2_proc_3 + 1231 pi_d_a0_a2_proc_0 + 2475 pi_d_a0_a2_proc_1
      + 1258 pi_d_a2_a0_proc_2 + 2502 pi_d_a2_a0_proc_3 + 1258 pi_d_a2_a0_proc_0
      + 2502 pi_d_a2_a0_proc_1 + 1258 pi_d_a0_a3_proc_3 + 2502 pi_d_a0_a3_proc_0
      + 2502 pi_d_a0_a3_proc_1 + 1231 pi_d_a3_a0_proc_3 + 2475 pi_d_a3_a0_proc_0
      + 2475 pi_d_a3_a0_proc_1 + 1258 pi_d_a0_a4_proc_2 + 2502 pi_d_a0_a4_proc_3
      + 1258 pi_d_a0_a4_proc_0 + 1231 pi_d_a4_a0_proc_2 + 2475 pi_d_a4_a0_proc_3
      + 1231 pi_d_a4_a0_proc_0 - pi_d_a0_a5_proc_2 + 2487 pi_d_a0_a5_proc_0
      + 2 pi_d_a5_a0_proc_2 + 2490 pi_d_a5_a0_proc_0 + 1231 pi_d_a0_a6_proc_2
      + 2475 pi_d_a0_a6_proc_3 + 1231 pi_d_a0_a6_proc_0 + 2475 pi_d_a0_a6_proc_1
      + 1258 pi_d_a6_a0_proc_2 + 2502 pi_d_a6_a0_proc_3 + 1258 pi_d_a6_a0_proc_0
      + 2502 pi_d_a6_a0_proc_1 + 2502 pi_d_a0_a7_proc_3 + 1258 pi_d_a0_a7_proc_0
      + 2475 pi_d_a7_a0_proc_3 + 1231 pi_d_a7_a0_proc_0 + 1258 pi_d_a0_a8_proc_2
      + 2502 pi_d_a0_a8_proc_3 + 2502 pi_d_a0_a8_proc_0 + 1258 pi_d_a0_a8_proc_1
      + 1231 pi_d_a8_a0_proc_2 + 2475 pi_d_a8_a0_proc_3 + 2475 pi_d_a8_a0_proc_0
      + 1231 pi_d_a8_a0_proc_1 + 1258 pi_d_a0_a9_proc_2 + 1258 pi_d_a0_a9_proc_3
      + 2502 pi_d_a0_a9_proc_1 + 1231 pi_d_a9_a0_proc_2 + 1231 pi_d_a9_a0_proc_3
      + 2475 pi_d_a9_a0_proc_1 + 1231 pi_d_a1_a2_proc_0 + 1231 pi_d_a1_a2_proc_1
      + 1258 pi_d_a2_a1_proc_0 + 1258 pi_d_a2_a1_proc_1 + 2502 pi_d_a1_a3_proc_0
      + 1258 pi_d_a1_a3_proc_1 + 2475 pi_d_a3_a1_proc_0 + 1231 pi_d_a3_a1_proc_1
      + 1258 pi_d_a1_a4_proc_0 + 1231 pi_d_a4_a1_proc_0 + 2502 pi_d_a1_a5_proc_0
      + 2475 pi_d_a5_a1_proc_0 + 1258 pi_d_a1_a6_proc_0 + 1258 pi_d_a1_a6_proc_1
      + 1231 pi_d_a6_a1_proc_0 + 1231 pi_d_a6_a1_proc_1 + 1258 pi_d_a1_a7_proc_0
      + 1231 pi_d_a7_a1_proc_0 + 2489 pi_d_a1_a8_proc_0 + pi_d_a1_a8_proc_1
      + 2488 pi_d_a8_a1_proc_0 + 1231 pi_d_a1_a9_proc_1 + 1258 pi_d_a9_a1_proc_1
      + 1258 pi_d_a2_a3_proc_3 + 1258 pi_d_a2_a3_proc_0 + 2502 pi_d_a2_a3_proc_1
      + 1231 pi_d_a3_a2_proc_3 + 1231 pi_d_a3_a2_proc_0 + 2475 pi_d_a3_a2_proc_1
      + 2489 pi_d_a2_a4_proc_2 + 2489 pi_d_a2_a4_proc_3 + pi_d_a2_a4_proc_0
      + 2488 pi_d_a4_a2_proc_2 + 2488 pi_d_a4_a2_proc_3 + 1258 pi_d_a2_a5_proc_2
      + 1258 pi_d_a2_a5_proc_0 + 1231 pi_d_a5_a2_proc_2 + 1231 pi_d_a5_a2_proc_0
      + 2489 pi_d_a2_a6_proc_2 + 2489 pi_d_a2_a6_proc_3 + pi_d_a2_a6_proc_0
      + 2489 pi_d_a2_a6_proc_1 + 2488 pi_d_a6_a2_proc_2 + 2488 pi_d_a6_a2_proc_3
      + 2488 pi_d_a6_a2_proc_1 + 2490 pi_d_a2_a7_proc_3 + 2 pi_d_a2_a7_proc_0
      + 2487 pi_d_a7_a2_proc_3 - pi_d_a7_a2_proc_0 + 2475 pi_d_a2_a8_proc_2
      + 2475 pi_d_a2_a8_proc_3 + 1231 pi_d_a2_a8_proc_0 + 1231 pi_d_a2_a8_proc_1
      + 2502 pi_d_a8_a2_proc_2 + 2502 pi_d_a8_a2_proc_3 + 1258 pi_d_a8_a2_proc_0
      + 1258 pi_d_a8_a2_proc_1 + 2502 pi_d_a2_a9_proc_2 + 1258 pi_d_a2_a9_proc_3
      + 2502 pi_d_a2_a9_proc_1 + 2475 pi_d_a9_a2_proc_2 + 1231 pi_d_a9_a2_proc_3
      + 2475 pi_d_a9_a2_proc_1 + 1258 pi_d_a3_a4_proc_3 + 1258 pi_d_a3_a4_proc_0
      + 1231 pi_d_a4_a3_proc_3 + 1231 pi_d_a4_a3_proc_0 + 2502 pi_d_a3_a5_proc_0
      + 2475 pi_d_a5_a3_proc_0 + 1258 pi_d_a3_a6_proc_3 + 1258 pi_d_a3_a6_proc_0
      + 2502 pi_d_a3_a6_proc_1 + 1231 pi_d_a6_a3_proc_3 + 1231 pi_d_a6_a3_proc_0
      + 2475 pi_d_a6_a3_proc_1 + 1258 pi_d_a3_a7_proc_3 + 1258 pi_d_a3_a7_proc_0
      + 1231 pi_d_a7_a3_proc_3 + 1231 pi_d_a7_a3_proc_0 + 1258 pi_d_a3_a8_proc_3
      + 2502 pi_d_a3_a8_proc_0 + 1258 pi_d_a3_a8_proc_1 + 1231 pi_d_a8_a3_proc_3
      + 2475 pi_d_a8_a3_proc_0 + 1231 pi_d_a8_a3_proc_1 + 2488 pi_d_a3_a9_proc_1
      + pi_d_a9_a3_proc_3 + 2489 pi_d_a9_a3_proc_1 + 1258 pi_d_a4_a5_proc_2
      + 1258 pi_d_a4_a5_proc_0 + 1231 pi_d_a5_a4_proc_2 + 1231 pi_d_a5_a4_proc_0
      + 2489 pi_d_a4_a6_proc_2 + 2489 pi_d_a4_a6_proc_3 + pi_d_a4_a6_proc_0
      + 2488 pi_d_a6_a4_proc_2 + 2488 pi_d_a6_a4_proc_3 + 2489 pi_d_a4_a7_proc_3
      + pi_d_a4_a7_proc_0 + 2488 pi_d_a7_a4_proc_3 + 2475 pi_d_a4_a8_proc_2
      + 2475 pi_d_a4_a8_proc_3 + 1231 pi_d_a4_a8_proc_0 + 2502 pi_d_a8_a4_proc_2
      + 2502 pi_d_a8_a4_proc_3 + 1258 pi_d_a8_a4_proc_0 + 2502 pi_d_a4_a9_proc_2
      + 1258 pi_d_a4_a9_proc_3 + 2475 pi_d_a9_a4_proc_2 + 1231 pi_d_a9_a4_proc_3
      + 1231 pi_d_a5_a6_proc_2 + 1231 pi_d_a5_a6_proc_0 + 1258 pi_d_a6_a5_proc_2
      + 1258 pi_d_a6_a5_proc_0 + 1231 pi_d_a5_a7_proc_0 + 1258 pi_d_a7_a5_proc_0
      + 1231 pi_d_a5_a8_proc_2 + 2475 pi_d_a5_a8_proc_0 + 1258 pi_d_a8_a5_proc_2
      + 2502 pi_d_a8_a5_proc_0 + 1258 pi_d_a5_a9_proc_2 + 1231 pi_d_a9_a5_proc_2
      + 2489 pi_d_a6_a7_proc_3 + pi_d_a6_a7_proc_0 + 2488 pi_d_a7_a6_proc_3
      + 2502 pi_d_a6_a8_proc_2 + 2502 pi_d_a6_a8_proc_3 + 1258 pi_d_a6_a8_proc_0
      + 1258 pi_d_a6_a8_proc_1 + 2475 pi_d_a8_a6_proc_2 + 2475 pi_d_a8_a6_proc_3
      + 1231 pi_d_a8_a6_proc_0 + 1231 pi_d_a8_a6_proc_1 + 2502 pi_d_a6_a9_proc_2
      + 1258 pi_d_a6_a9_proc_3 + 2502 pi_d_a6_a9_proc_1 + 2475 pi_d_a9_a6_proc_2
      + 1231 pi_d_a9_a6_proc_3 + 2475 pi_d_a9_a6_proc_1 + 2502 pi_d_a7_a8_proc_3
      + 1258 pi_d_a7_a8_proc_0 + 2475 pi_d_a8_a7_proc_3 + 1231 pi_d_a8_a7_proc_0
      + 1258 pi_d_a7_a9_proc_3 + 1231 pi_d_a9_a7_proc_3 + 2502 pi_d_a8_a9_proc_2
      + 1258 pi_d_a8_a9_proc_3 + 1258 pi_d_a8_a9_proc_1 + 2475 pi_d_a9_a8_proc_2
      + 1231 pi_d_a9_a8_proc_3 + 1231 pi_d_a9_a8_proc_1 + pi_y2_a0_proc_2
      + pi_y2_a1_proc_1 + pi_y2_a2_proc_0 + pi_y2_a3_proc_3 + pi_y2_a4_proc_0
      + pi_y2_a5_proc_2 + pi_y2_a6_proc_0 + pi_y2_a7_proc_0 + pi_y2_a8_proc_1
      + pi_y2_a9_proc_3
Subject To
 c1: pi_nr_a0 + pi_nr_a1 + pi_nr_a2 + pi_nr_a3 + pi_nr_a4 + pi_nr_a5 + pi_nr_a6
     + pi_nr_a7 + pi_nr_a8 + pi_nr_a9 - pi_y1_a0 - pi_y1_a1 - pi_y1_a2
     - pi_y1_a3 - pi_y1_a4 - pi_y1_a5 - pi_y1_a6 - pi_y1_a7 - pi_y1_a8
     - pi_y1_a9 >= 1
 c2: pi_p_a0_a1 - pi_p_a3_a0 - pi_p_a4_a0 + pi_d_a0_a1_proc_0
     + pi_d_a0_a1_proc_1 - pi_d_a1_a0_proc_0 - pi_d_a1_a0_proc_1
     + pi_d_a0_a2_proc_2 + pi_d_a0_a2_proc_3 + pi_d_a0_a2_proc_0
     + pi_d_a0_a2_proc_1 - pi_d_a2_a0_proc_2 - pi_d_a2_a0_proc_3
     - pi_d_a2_a0_proc_0 - pi_d_a2_a0_proc_1 + pi_d_a0_a3_proc_3
     + pi_d_a0_a3_proc_0 + pi_d_a0_a3_proc_1 - pi_d_a3_a0_proc_3
     - pi_d_a3_a0_proc_0 - pi_d_a3_a0_proc_1 + pi_d_a0_a4_proc_2
     + pi_d_a0_a4_proc_3 + pi_d_a0_a4_proc_0 - pi_d_a4_a0_proc_2
     - pi_d_a4_a0_proc_3 - pi_d_a4_a0_proc_0 + pi_d_a0_a5_proc_2
     + pi_d_a0_a5_proc_0 - pi_d_a5_a0_proc_2 - pi_d_a5_a0_proc_0
     + pi_d_a0_a6_proc_2 + pi_d_a0_a6_proc_3 + pi_d_a0_a6_proc_0
     + pi_d_a0_a6_proc_1 - pi_d_a6_a0_proc_2 - pi_d_a6_a0_proc_3
     - pi_d_a6_a0_proc_0 - pi_d_a6_a0_proc_1 + pi_d_a0_a7_proc_3
     + pi_d_a0_a7_proc_0 - pi_d_a7_a0_proc_3 - pi_d_a7_a0_proc_0
     + pi_d_a0_a8_proc_2 + pi_d_a0_a8_proc_3 + pi_d_a0_a8_proc_0
     + pi_d_a0_a8_proc_1 - pi_d_a8_a0_proc_2 - pi_d_a8_a0_proc_3
     - pi_d_a8_a0_proc_0 - pi_d_a8_a0_proc_1 + pi_d_a0_a9_proc_2
     + pi_d_a0_a9_proc_3 + pi_d_a0_a9_proc_1 - pi_d_a9_a0_proc_2
     - pi_d_a9_a0_proc_3 - pi_d_a9_a0_proc_1 >= 0
 c3: 982 pi_p_a0_a1 + 982 pi_d_a0_a1_proc_0 + 982 pi_d_a0_a2_proc_0
     + 982 pi_d_a0_a3_proc_0 + 982 pi_d_a0_a4_proc_0 + 982 pi_d_a0_a5_proc_0
     + 982 pi_d_a0_a6_proc_0 + 982 pi_d_a0_a7_proc_0 + 982 pi_d_a0_a8_proc_0
     + pi_y1_a0 + pi_y2_a0_proc_0 >= 0
 c4: 838 pi_p_a0_a1 + 838 pi_d_a0_a1_proc_1 + 838 pi_d_a0_a2_proc_1
     + 838 pi_d_a0_a3_proc_1 + 838 pi_d_a0_a6_proc_1 + 838 pi_d_a0_a8_proc_1
     + 838 pi_d_a0_a9_proc_1 + pi_y1_a0 + pi_y2_a0_proc_1 >= 0
 c5: 828 pi_p_a0_a1 + 828 pi_d_a0_a2_proc_2 + 828 pi_d_a0_a4_proc_2
     + 828 pi_d_a0_a5_proc_2 + 828 pi_d_a0_a6_proc_2 + 828 pi_d_a0_a8_proc_2
     + 828 pi_d_a0_a9_proc_2 + pi_y1_a0 + pi_y2_a0_proc_2 >= 0
 c6: 1132 pi_p_a0_a1 + 1132 pi_d_a0_a2_proc_3 + 1132 pi_d_a0_a3_proc_3
     + 1132 pi_d_a0_a4_proc_3 + 1132 pi_d_a0_a6_proc_3 + 1132 pi_d_a0_a7_proc_3
     + 1132 pi_d_a0_a8_proc_3 + 1132 pi_d_a0_a9_proc_3 + pi_y1_a0
     + pi_y2_a0_proc_3 >= 0
 c7: - pi_p_a0_a1 + pi_p_a1_a2 + pi_p_a1_a7 - pi_d_a0_a1_proc_0
     - pi_d_a0_a1_proc_1 + pi_d_a1_a0_proc_0 + pi_d_a1_a0_proc_1
     + pi_d_a1_a2_proc_0 + pi_d_a1_a2_proc_1 - pi_d_a2_a1_proc_0
     - pi_d_a2_a1_proc_1 + pi_d_a1_a3_proc_0 + pi_d_a1_a3_proc_1
     - pi_d_a3_a1_proc_0 - pi_d_a3_a1_proc_1 + pi_d_a1_a4_proc_0
     - pi_d_a4_a1_proc_0 + pi_d_a1_a5_proc_0 - pi_d_a5_a1_proc_0
     + pi_d_a1_a6_proc_0 + pi_d_a1_a6_proc_1 - pi_d_a6_a1_proc_0
     - pi_d_a6_a1_proc_1 + pi_d_a1_a7_proc_0 - pi_d_a7_a1_proc_0
     + pi_d_a1_a8_proc_0 + pi_d_a1_a8_proc_1 - pi_d_a8_a1_proc_0
     - pi_d_a8_a1_proc_1 + pi_d_a1_a9_proc_1 - pi_d_a9_a1_proc_1 >= 0
 c8: 1244 pi_p_a1_a2 + 1244 pi_p_a1_a7 + 1244 pi_d_a1_a0_proc_0
     + 1244 pi_d_a1_a2_proc_0 + 1244 pi_d_a1_a3_proc_0 + 1244 pi_d_a1_a4_proc_0
     + 1244 pi_d_a1_a5_proc_0 + 1244 pi_d_a1_a6_proc_0 + 1244 pi_d_a1_a7_proc_0
     + 1244 pi_d_a1_a8_proc_0 + pi_y1_a1 + pi_y2_a1_proc_0 >= 0
 c9: 672 pi_p_a1_a2 + 672 pi_p_a1_a7 + 672 pi_d_a1_a0_proc_1
     + 672 pi_d_a1_a2_proc_1 + 672 pi_d_a1_a3_proc_1 + 672 pi_d_a1_a6_proc_1
     + 672 pi_d_a1_a8_proc_1 + 672 pi_d_a1_a9_proc_1 + pi_y1_a1
     + pi_y2_a1_proc_1 >= 0
 c10: - pi_p_a1_a2 + pi_p_a2_a5 + pi_p_a2_a6 - pi_p_a9_a2 - pi_p_a4_a2
      - pi_d_a0_a2_proc_2 - pi_d_a0_a2_proc_3 - pi_d_a0_a2_proc_0
      - pi_d_a0_a2_proc_1 + pi_d_a2_a0_proc_2 + pi_d_a2_a0_proc_3
      + pi_d_a2_a0_proc_0 + pi_d_a2_a0_proc_1 - pi_d_a1_a2_proc_0
      - pi_d_a1_a2_proc_1 + pi_d_a2_a1_proc_0 + pi_d_a2_a1_proc_1
      + pi_d_a2_a3_proc_3 + pi_d_a2_a3_proc_0 + pi_d_a2_a3_proc_1
      - pi_d_a3_a2_proc_3 - pi_d_a3_a2_proc_0 - pi_d_a3_a2_proc_1
      + pi_d_a2_a4_proc_2 + pi_d_a2_a4_proc_3 + pi_d_a2_a4_proc_0
      - pi_d_a4_a2_proc_2 - pi_d_a4_a2_proc_3 - pi_d_a4_a2_proc_0
      + pi_d_a2_a5_proc_2 + pi_d_a2_a5_proc_0 - pi_d_a5_a2_proc_2
      - pi_d_a5_a2_proc_0 + pi_d_a2_a6_proc_2 + pi_d_a2_a6_proc_3
      + pi_d_a2_a6_proc_0 + pi_d_a2_a6_proc_1 - pi_d_a6_a2_proc_2
      - pi_d_a6_a2_proc_3 - pi_d_a6_a2_proc_0 - pi_d_a6_a2_proc_1
      + pi_d_a2_a7_proc_3 + pi_d_a2_a7_proc_0 - pi_d_a7_a2_proc_3
      - pi_d_a7_a2_proc_0 + pi_d_a2_a8_proc_2 + pi_d_a2_a8_proc_3
      + pi_d_a2_a8_proc_0 + pi_d_a2_a8_proc_1 - pi_d_a8_a2_proc_2
      - pi_d_a8_a2_proc_3 - pi_d_a8_a2_proc_0 - pi_d_a8_a2_proc_1
      + pi_d_a2_a9_proc_2 + pi_d_a2_a9_proc_3 + pi_d_a2_a9_proc_1
      - pi_d_a9_a2_proc_2 - pi_d_a9_a2_proc_3 - pi_d_a9_a2_proc_1 >= 0
 c11: 295 pi_p_a2_a5 + 295 pi_p_a2_a6 + 295 pi_d_a2_a0_proc_0
      + 295 pi_d_a2_a1_proc_0 + 295 pi_d_a2_a3_proc_0 + 295 pi_d_a2_a4_proc_0
      + 295 pi_d_a2_a5_proc_0 + 295 pi_d_a2_a6_proc_0 + 295 pi_d_a2_a7_proc_0
      + 295 pi_d_a2_a8_proc_0 + pi_y1_a2 + pi_y2_a2_proc_0 >= 0
 c12: 965 pi_p_a2_a5 + 965 pi_p_a2_a6 + 965 pi_d_a2_a0_proc_1
      + 965 pi_d_a2_a1_proc_1 + 965 pi_d_a2_a3_proc_1 + 965 pi_d_a2_a6_proc_1
      + 965 pi_d_a2_a8_proc_1 + 965 pi_d_a2_a9_proc_1 + pi_y1_a2
      + pi_y2_a2_proc_1 >= 0
 c13: 1148 pi_p_a2_a5 + 1148 pi_p_a2_a6 + 1148 pi_d_a2_a0_proc_2
      + 1148 pi_d_a2_a4_proc_2 + 1148 pi_d_a2_a5_proc_2 + 1148 pi_d_a2_a6_proc_2
      + 1148 pi_d_a2_a8_proc_2 + 1148 pi_d_a2_a9_proc_2 + pi_y1_a2
      + pi_y2_a2_proc_2 >= 0
 c14: 880 pi_p_a2_a5 + 880 pi_p_a2_a6 + 880 pi_d_a2_a0_proc_3
      + 880 pi_d_a2_a3_proc_3 + 880 pi_d_a2_a4_proc_3 + 880 pi_d_a2_a6_proc_3
      + 880 pi_d_a2_a7_proc_3 + 880 pi_d_a2_a8_proc_3 + 880 pi_d_a2_a9_proc_3
      + pi_y1_a2 + pi_y2_a2_proc_3 >= 0
 c15: pi_p_a3_a0 - pi_p_a7_a3 - pi_p_a9_a3 - pi_d_a0_a3_proc_3
      - pi_d_a0_a3_proc_0 - pi_d_a0_a3_proc_1 + pi_d_a3_a0_proc_3
      + pi_d_a3_a0_proc_0 + pi_d_a3_a0_proc_1 - pi_d_a1_a3_proc_0
      - pi_d_a1_a3_proc_1 + pi_d_a3_a1_proc_0 + pi_d_a3_a1_proc_1
      - pi_d_a2_a3_proc_3 - pi_d_a2_a3_proc_0 - pi_d_a2_a3_proc_1
      + pi_d_a3_a2_proc_3 + pi_d_a3_a2_proc_0 + pi_d_a3_a2_proc_1
      + pi_d_a3_a4_proc_3 + pi_d_a3_a4_proc_0 - pi_d_a4_a3_proc_3
      - pi_d_a4_a3_proc_0 + pi_d_a3_a5_proc_0 - pi_d_a5_a3_proc_0
      + pi_d_a3_a6_proc_3 + pi_d_a3_a6_proc_0 + pi_d_a3_a6_proc_1
      - pi_d_a6_a3_proc_3 - pi_d_a6_a3_proc_0 - pi_d_a6_a3_proc_1
      + pi_d_a3_a7_proc_3 + pi_d_a3_a7_proc_0 - pi_d_a7_a3_proc_3
      - pi_d_a7_a3_proc_0 + pi_d_a3_a8_proc_3 + pi_d_a3_a8_proc_0
      + pi_d_a3_a8_proc_1 - pi_d_a8_a3_proc_3 - pi_d_a8_a3_proc_0
      - pi_d_a8_a3_proc_1 + pi_d_a3_a9_proc_3 + pi_d_a3_a9_proc_1
      - pi_d_a9_a3_proc_3 - pi_d_a9_a3_proc_1 >= 0
 c16: 886 pi_p_a3_a0 + 886 pi_d_a3_a0_proc_0 + 886 pi_d_a3_a1_proc_0
      + 886 pi_d_a3_a2_proc_0 + 886 pi_d_a3_a4_proc_0 + 886 pi_d_a3_a5_proc_0
      + 886 pi_d_a3_a6_proc_0 + 886 pi_d_a3_a7_proc_0 + 886 pi_d_a3_a8_proc_0
      + pi_y1_a3 + pi_y2_a3_proc_0 >= 0
 c17: 728 pi_p_a3_a0 + 728 pi_d_a3_a0_proc_1 + 728 pi_d_a3_a1_proc_1
      + 728 pi_d_a3_a2_proc_1 + 728 pi_d_a3_a6_proc_1 + 728 pi_d_a3_a8_proc_1
      + 728 pi_d_a3_a9_proc_1 + pi_y1_a3 + pi_y2_a3_proc_1 >= 0
 c18: 664 pi_p_a3_a0 + 664 pi_d_a3_a0_proc_3 + 664 pi_d_a3_a2_proc_3
      + 664 pi_d_a3_a4_proc_3 + 664 pi_d_a3_a6_proc_3 + 664 pi_d_a3_a7_proc_3
      + 664 pi_d_a3_a8_proc_3 + 664 pi_d_a3_a9_proc_3 + pi_y1_a3
      + pi_y2_a3_proc_3 >= 0
 c19: pi_p_a4_a0 - pi_p_a6_a4 - pi_p_a7_a4 + pi_p_a4_a2 + pi_p_a4_a7
      - pi_d_a0_a4_proc_2 - pi_d_a0_a4_proc_3 - pi_d_a0_a4_proc_0
      + pi_d_a4_a0_proc_2 + pi_d_a4_a0_proc_3 + pi_d_a4_a0_proc_0
      - pi_d_a1_a4_proc_0 + pi_d_a4_a1_proc_0 - pi_d_a2_a4_proc_2
      - pi_d_a2_a4_proc_3 - pi_d_a2_a4_proc_0 + pi_d_a4_a2_proc_2
      + pi_d_a4_a2_proc_3 + pi_d_a4_a2_proc_0 - pi_d_a3_a4_proc_3
      - pi_d_a3_a4_proc_0 + pi_d_a4_a3_proc_3 + pi_d_a4_a3_proc_0
      + pi_d_a4_a5_proc_2 + pi_d_a4_a5_proc_0 - pi_d_a5_a4_proc_2
      - pi_d_a5_a4_proc_0 + pi_d_a4_a6_proc_2 + pi_d_a4_a6_proc_3
      + pi_d_a4_a6_proc_0 - pi_d_a6_a4_proc_2 - pi_d_a6_a4_proc_3
      - pi_d_a6_a4_proc_0 + pi_d_a4_a7_proc_3 + pi_d_a4_a7_proc_0
      - pi_d_a7_a4_proc_3 - pi_d_a7_a4_proc_0 + pi_d_a4_a8_proc_2
      + pi_d_a4_a8_proc_3 + pi_d_a4_a8_proc_0 - pi_d_a8_a4_proc_2
      - pi_d_a8_a4_proc_3 - pi_d_a8_a4_proc_0 + pi_d_a4_a9_proc_2
      + pi_d_a4_a9_proc_3 - pi_d_a9_a4_proc_2 - pi_d_a9_a4_proc_3 >= 0
 c20: 1226 pi_p_a4_a0 + 1226 pi_p_a4_a2 + 1226 pi_p_a4_a7
      + 1226 pi_d_a4_a0_proc_0 + 1226 pi_d_a4_a1_proc_0 + 1226 pi_d_a4_a2_proc_0
      + 1226 pi_d_a4_a3_proc_0 + 1226 pi_d_a4_a5_proc_0 + 1226 pi_d_a4_a6_proc_0
      + 1226 pi_d_a4_a7_proc_0 + 1226 pi_d_a4_a8_proc_0 + pi_y1_a4
      + pi_y2_a4_proc_0 >= 0
 c21: 1086 pi_p_a4_a0 + 1086 pi_p_a4_a2 + 1086 pi_p_a4_a7
      + 1086 pi_d_a4_a0_proc_2 + 1086 pi_d_a4_a2_proc_2 + 1086 pi_d_a4_a5_proc_2
      + 1086 pi_d_a4_a6_proc_2 + 1086 pi_d_a4_a8_proc_2 + 1086 pi_d_a4_a9_proc_2
      + pi_y1_a4 + pi_y2_a4_proc_2 >= 0
 c22: 549 pi_p_a4_a0 + 549 pi_p_a4_a2 + 549 pi_p_a4_a7 + 549 pi_d_a4_a0_proc_3
      + 549 pi_d_a4_a2_proc_3 + 549 pi_d_a4_a3_proc_3 + 549 pi_d_a4_a6_proc_3
      + 549 pi_d_a4_a7_proc_3 + 549 pi_d_a4_a8_proc_3 + 549 pi_d_a4_a9_proc_3
      + pi_y1_a4 + pi_y2_a4_proc_3 >= 0
 c23: - pi_p_a2_a5 + pi_p_a5_a9 - pi_d_a0_a5_proc_2 - pi_d_a0_a5_proc_0
      + pi_d_a5_a0_proc_2 + pi_d_a5_a0_proc_0 - pi_d_a1_a5_proc_0
      + pi_d_a5_a1_proc_0 - pi_d_a2_a5_proc_2 - pi_d_a2_a5_proc_0
      + pi_d_a5_a2_proc_2 + pi_d_a5_a2_proc_0 - pi_d_a3_a5_proc_0
      + pi_d_a5_a3_proc_0 - pi_d_a4_a5_proc_2 - pi_d_a4_a5_proc_0
      + pi_d_a5_a4_proc_2 + pi_d_a5_a4_proc_0 + pi_d_a5_a6_proc_2
      + pi_d_a5_a6_proc_0 - pi_d_a6_a5_proc_2 - pi_d_a6_a5_proc_0
      + pi_d_a5_a7_proc_0 - pi_d_a7_a5_proc_0 + pi_d_a5_a8_proc_2
      + pi_d_a5_a8_proc_0 - pi_d_a8_a5_proc_2 - pi_d_a8_a5_proc_0
      + pi_d_a5_a9_proc_2 - pi_d_a9_a5_proc_2 >= 0
 c24: 409 pi_p_a5_a9 + 409 pi_d_a5_a0_proc_0 + 409 pi_d_a5_a1_proc_0
      + 409 pi_d_a5_a2_proc_0 + 409 pi_d_a5_a3_proc_0 + 409 pi_d_a5_a4_proc_0
      + 409 pi_d_a5_a6_proc_0 + 409 pi_d_a5_a7_proc_0 + 409 pi_d_a5_a8_proc_0
      + pi_y1_a5 + pi_y2_a5_proc_0 >= 0
 c25: 562 pi_p_a5_a9 + 562 pi_d_a5_a0_proc_2 + 562 pi_d_a5_a2_proc_2
      + 562 pi_d_a5_a4_proc_2 + 562 pi_d_a5_a6_proc_2 + 562 pi_d_a5_a8_proc_2
      + 562 pi_d_a5_a9_proc_2 + pi_y1_a5 + pi_y2_a5_proc_2 >= 0
 c26: - pi_p_a2_a6 + pi_p_a6_a8 + pi_p_a6_a4 - pi_d_a0_a6_proc_2
      - pi_d_a0_a6_proc_3 - pi_d_a0_a6_proc_0 - pi_d_a0_a6_proc_1
      + pi_d_a6_a0_proc_2 + pi_d_a6_a0_proc_3 + pi_d_a6_a0_proc_0
      + pi_d_a6_a0_proc_1 - pi_d_a1_a6_proc_0 - pi_d_a1_a6_proc_1
      + pi_d_a6_a1_proc_0 + pi_d_a6_a1_proc_1 - pi_d_a2_a6_proc_2
      - pi_d_a2_a6_proc_3 - pi_d_a2_a6_proc_0 - pi_d_a2_a6_proc_1
      + pi_d_a6_a2_proc_2 + pi_d_a6_a2_proc_3 + pi_d_a6_a2_proc_0
      + pi_d_a6_a2_proc_1 - pi_d_a3_a6_proc_3 - pi_d_a3_a6_proc_0
      - pi_d_a3_a6_proc_1 + pi_d_a6_a3_proc_3 + pi_d_a6_a3_proc_0
      + pi_d_a6_a3_proc_1 - pi_d_a4_a6_proc_2 - pi_d_a4_a6_proc_3
      - pi_d_a4_a6_proc_0 + pi_d_a6_a4_proc_2 + pi_d_a6_a4_proc_3
      + pi_d_a6_a4_proc_0 - pi_d_a5_a6_proc_2 - pi_d_a5_a6_proc_0
      + pi_d_a6_a5_proc_2 + pi_d_a6_a5_proc_0 + pi_d_a6_a7_proc_3
      + pi_d_a6_a7_proc_0 - pi_d_a7_a6_proc_3 - pi_d_a7_a6_proc_0
      + pi_d_a6_a8_proc_2 + pi_d_a6_a8_proc_3 + pi_d_a6_a8_proc_0
      + pi_d_a6_a8_proc_1 - pi_d_a8_a6_proc_2 - pi_d_a8_a6_proc_3
      - pi_d_a8_a6_proc_0 - pi_d_a8_a6_proc_1 + pi_d_a6_a9_proc_2
      + pi_d_a6_a9_proc_3 + pi_d_a6_a9_proc_1 - pi_d_a9_a6_proc_2
      - pi_d_a9_a6_proc_3 - pi_d_a9_a6_proc_1 >= 0
 c27: 435 pi_p_a6_a8 + 435 pi_p_a6_a4 + 435 pi_d_a6_a0_proc_0
      + 435 pi_d_a6_a1_proc_0 + 435 pi_d_a6_a2_proc_0 + 435 pi_d_a6_a3_proc_0
      + 435 pi_d_a6_a4_proc_0 + 435 pi_d_a6_a5_proc_0 + 435 pi_d_a6_a7_proc_0
      + 435 pi_d_a6_a8_proc_0 + pi_y1_a6 + pi_y2_a6_proc_0 >= 0
 c28: 824 pi_p_a6_a8 + 824 pi_p_a6_a4 + 824 pi_d_a6_a0_proc_1
      + 824 pi_d_a6_a1_proc_1 + 824 pi_d_a6_a2_proc_1 + 824 pi_d_a6_a3_proc_1
      + 824 pi_d_a6_a8_proc_1 + 824 pi_d_a6_a9_proc_1 + pi_y1_a6
      + pi_y2_a6_proc_1 >= 0
 c29: 563 pi_p_a6_a8 + 563 pi_p_a6_a4 + 563 pi_d_a6_a0_proc_2
      + 563 pi_d_a6_a2_proc_2 + 563 pi_d_a6_a4_proc_2 + 563 pi_d_a6_a5_proc_2
      + 563 pi_d_a6_a8_proc_2 + 563 pi_d_a6_a9_proc_2 + pi_y1_a6
      + pi_y2_a6_proc_2 >= 0
 c30: 1147 pi_p_a6_a8 + 1147 pi_p_a6_a4 + 1147 pi_d_a6_a0_proc_3
      + 1147 pi_d_a6_a2_proc_3 + 1147 pi_d_a6_a3_proc_3 + 1147 pi_d_a6_a4_proc_3
      + 1147 pi_d_a6_a7_proc_3 + 1147 pi_d_a6_a8_proc_3 + 1147 pi_d_a6_a9_proc_3
      + pi_y1_a6 + pi_y2_a6_proc_3 >= 0
 c31: pi_p_a7_a3 - pi_p_a8_a7 + pi_p_a7_a4 - pi_p_a4_a7 - pi_p_a1_a7
      - pi_d_a0_a7_proc_3 - pi_d_a0_a7_proc_0 + pi_d_a7_a0_proc_3
      + pi_d_a7_a0_proc_0 - pi_d_a1_a7_proc_0 + pi_d_a7_a1_proc_0
      - pi_d_a2_a7_proc_3 - pi_d_a2_a7_proc_0 + pi_d_a7_a2_proc_3
      + pi_d_a7_a2_proc_0 - pi_d_a3_a7_proc_3 - pi_d_a3_a7_proc_0
      + pi_d_a7_a3_proc_3 + pi_d_a7_a3_proc_0 - pi_d_a4_a7_proc_3
      - pi_d_a4_a7_proc_0 + pi_d_a7_a4_proc_3 + pi_d_a7_a4_proc_0
      - pi_d_a5_a7_proc_0 + pi_d_a7_a5_proc_0 - pi_d_a6_a7_proc_3
      - pi_d_a6_a7_proc_0 + pi_d_a7_a6_proc_3 + pi_d_a7_a6_proc_0
      + pi_d_a7_a8_proc_3 + pi_d_a7_a8_proc_0 - pi_d_a8_a7_proc_3
      - pi_d_a8_a7_proc_0 + pi_d_a7_a9_proc_3 - pi_d_a9_a7_proc_3 >= 0
 c32: 693 pi_p_a7_a3 + 693 pi_p_a7_a4 + 693 pi_d_a7_a0_proc_0
      + 693 pi_d_a7_a1_proc_0 + 693 pi_d_a7_a2_proc_0 + 693 pi_d_a7_a3_proc_0
      + 693 pi_d_a7_a4_proc_0 + 693 pi_d_a7_a5_proc_0 + 693 pi_d_a7_a6_proc_0
      + 693 pi_d_a7_a8_proc_0 + pi_y1_a7 + pi_y2_a7_proc_0 >= 0
 c33: 1131 pi_p_a7_a3 + 1131 pi_p_a7_a4 + 1131 pi_d_a7_a0_proc_3
      + 1131 pi_d_a7_a2_proc_3 + 1131 pi_d_a7_a3_proc_3 + 1131 pi_d_a7_a4_proc_3
      + 1131 pi_d_a7_a6_proc_3 + 1131 pi_d_a7_a8_proc_3 + 1131 pi_d_a7_a9_proc_3
      + pi_y1_a7 + pi_y2_a7_proc_3 >= 0
 c34: pi_p_a8_a7 - pi_p_a6_a8 - pi_d_a0_a8_proc_2 - pi_d_a0_a8_proc_3
      - pi_d_a0_a8_proc_0 - pi_d_a0_a8_proc_1 + pi_d_a8_a0_proc_2
      + pi_d_a8_a0_proc_3 + pi_d_a8_a0_proc_0 + pi_d_a8_a0_proc_1
      - pi_d_a1_a8_proc_0 - pi_d_a1_a8_proc_1 + pi_d_a8_a1_proc_0
      + pi_d_a8_a1_proc_1 - pi_d_a2_a8_proc_2 - pi_d_a2_a8_proc_3
      - pi_d_a2_a8_proc_0 - pi_d_a2_a8_proc_1 + pi_d_a8_a2_proc_2
      + pi_d_a8_a2_proc_3 + pi_d_a8_a2_proc_0 + pi_d_a8_a2_proc_1
      - pi_d_a3_a8_proc_3 - pi_d_a3_a8_proc_0 - pi_d_a3_a8_proc_1
      + pi_d_a8_a3_proc_3 + pi_d_a8_a3_proc_0 + pi_d_a8_a3_proc_1
      - pi_d_a4_a8_proc_2 - pi_d_a4_a8_proc_3 - pi_d_a4_a8_proc_0
      + pi_d_a8_a4_proc_2 + pi_d_a8_a4_proc_3 + pi_d_a8_a4_proc_0
      - pi_d_a5_a8_proc_2 - pi_d_a5_a8_proc_0 + pi_d_a8_a5_proc_2
      + pi_d_a8_a5_proc_0 - pi_d_a6_a8_proc_2 - pi_d_a6_a8_proc_3
      - pi_d_a6_a8_proc_0 - pi_d_a6_a8_proc_1 + pi_d_a8_a6_proc_2
      + pi_d_a8_a6_proc_3 + pi_d_a8_a6_proc_0 + pi_d_a8_a6_proc_1
      - pi_d_a7_a8_proc_3 - pi_d_a7_a8_proc_0 + pi_d_a8_a7_proc_3
      + pi_d_a8_a7_proc_0 + pi_d_a8_a9_proc_2 + pi_d_a8_a9_proc_3
      + pi_d_a8_a9_proc_1 - pi_d_a9_a8_proc_2 - pi_d_a9_a8_proc_3
      - pi_d_a9_a8_proc_1 >= 0
 c35: 898 pi_p_a8_a7 + 898 pi_d_a8_a0_proc_0 + 898 pi_d_a8_a1_proc_0
      + 898 pi_d_a8_a2_proc_0 + 898 pi_d_a8_a3_proc_0 + 898 pi_d_a8_a4_proc_0
      + 898 pi_d_a8_a5_proc_0 + 898 pi_d_a8_a6_proc_0 + 898 pi_d_a8_a7_proc_0
      + pi_y1_a8 + pi_y2_a8_proc_0 >= 0
 c36: 649 pi_p_a8_a7 + 649 pi_d_a8_a0_proc_1 + 649 pi_d_a8_a1_proc_1
      + 649 pi_d_a8_a2_proc_1 + 649 pi_d_a8_a3_proc_1 + 649 pi_d_a8_a6_proc_1
      + 649 pi_d_a8_a9_proc_1 + pi_y1_a8 + pi_y2_a8_proc_1 >= 0
 c37: 1193 pi_p_a8_a7 + 1193 pi_d_a8_a0_proc_2 + 1193 pi_d_a8_a2_proc_2
      + 1193 pi_d_a8_a4_proc_2 + 1193 pi_d_a8_a5_proc_2 + 1193 pi_d_a8_a6_proc_2
      + 1193 pi_d_a8_a9_proc_2 + pi_y1_a8 + pi_y2_a8_proc_2 >= 0
 c38: 848 pi_p_a8_a7 + 848 pi_d_a8_a0_proc_3 + 848 pi_d_a8_a2_proc_3
      + 848 pi_d_a8_a3_proc_3 + 848 pi_d_a8_a4_proc_3 + 848 pi_d_a8_a6_proc_3
      + 848 pi_d_a8_a7_proc_3 + 848 pi_d_a8_a9_proc_3 + pi_y1_a8
      + pi_y2_a8_proc_3 >= 0
 c39: - pi_p_a5_a9 + pi_p_a9_a2 + pi_p_a9_a3 - pi_d_a0_a9_proc_2
      - pi_d_a0_a9_proc_3 - pi_d_a0_a9_proc_1 + pi_d_a9_a0_proc_2
      + pi_d_a9_a0_proc_3 + pi_d_a9_a0_proc_1 - pi_d_a1_a9_proc_1
      + pi_d_a9_a1_proc_1 - pi_d_a2_a9_proc_2 - pi_d_a2_a9_proc_3
      - pi_d_a2_a9_proc_1 + pi_d_a9_a2_proc_2 + pi_d_a9_a2_proc_3
      + pi_d_a9_a2_proc_1 - pi_d_a3_a9_proc_3 - pi_d_a3_a9_proc_1
      + pi_d_a9_a3_proc_3 + pi_d_a9_a3_proc_1 - pi_d_a4_a9_proc_2
      - pi_d_a4_a9_proc_3 + pi_d_a9_a4_proc_2 + pi_d_a9_a4_proc_3
      - pi_d_a5_a9_proc_2 + pi_d_a9_a5_proc_2 - pi_d_a6_a9_proc_2
      - pi_d_a6_a9_proc_3 - pi_d_a6_a9_proc_1 + pi_d_a9_a6_proc_2
      + pi_d_a9_a6_proc_3 + pi_d_a9_a6_proc_1 - pi_d_a7_a9_proc_3
      + pi_d_a9_a7_proc_3 - pi_d_a8_a9_proc_2 - pi_d_a8_a9_proc_3
      - pi_d_a8_a9_proc_1 + pi_d_a9_a8_proc_2 + pi_d_a9_a8_proc_3
      + pi_d_a9_a8_proc_1 >= 0
 c40: 1090 pi_p_a9_a2 + 1090 pi_p_a9_a3 + 1090 pi_d_a9_a0_proc_1
      + 1090 pi_d_a9_a1_proc_1 + 1090 pi_d_a9_a2_proc_1 + 1090 pi_d_a9_a3_proc_1
      + 1090 pi_d_a9_a6_proc_1 + 1090 pi_d_a9_a8_proc_1 + pi_y1_a9
      + pi_y2_a9_proc_1 >= 0
 c41: 941 pi_p_a9_a2 + 941 pi_p_a9_a3 + 941 pi_d_a9_a0_proc_2
      + 941 pi_d_a9_a2_proc_2 + 941 pi_d_a9_a4_proc_2 + 941 pi_d_a9_a5_proc_2
      + 941 pi_d_a9_a6_proc_2 + 941 pi_d_a9_a8_proc_2 + pi_y1_a9
      + pi_y2_a9_proc_2 >= 0
 c42: 770 pi_p_a9_a2 + 770 pi_p_a9_a3 + 770 pi_d_a9_a0_proc_3
      + 770 pi_d_a9_a2_proc_3 + 770 pi_d_a9_a3_proc_3 + 770 pi_d_a9_a4_proc_3
      + 770 pi_d_a9_a6_proc_3 + 770 pi_d_a9_a7_proc_3 + 770 pi_d_a9_a8_proc_3
      + pi_y1_a9 + pi_y2_a9_proc_3 >= 0

Bounds
       pi_y1_a0 Free
       pi_y1_a1 Free
       pi_y1_a2 Free
       pi_y1_a3 Free
       pi_y1_a4 Free
       pi_y1_a5 Free
       pi_y1_a6 Free
       pi_y1_a7 Free
       pi_y1_a8 Free
       pi_y1_a9 Free
End
