benchmark/results/graph__10-1000-0.10-04_12/graph__10-1000-0.10-04_12_QuintonOs_Benders_sub.txt
solution for: Quinton Bounded Benders_dual_sub
objective: 0.000350018
status: OPTIMAL_SOLUTION(2)
pi_p_a0_a1=0.000
pi_p_a3_a0=0.000
pi_p_a7_a3=0.000
pi_p_a1_a7=0.000
pi_y1_a0=-0.290
pi_y1_a1=-0.235
pi_y1_a3=-0.232
pi_y1_a7=-0.243
